data/solutions/recovery/degenerate/intermediate/binding/degenerate_intermediate_instance38/65.sol
Elapsed time: 0.04
Upper bound: 313265.0
Planning weighted value: 14519271458.0
C[0]=313265.0
C[1]=312545.0
C[2]=304974.0
C[3]=304737.0
C[4]=297142.0
C[5]=295420.0
C[6]=287999.0
C[7]=287401.0
C[8]=281311.0
C[9]=280641.0
C[10]=280598.0
C[11]=277768.0
C[12]=260617.0
C[13]=0.0
C[14]=0.0
C[15]=0.0
y[0]=7
y[1]=12
y[2]=2
y[3]=8
y[4]=4
y[5]=9
y[6]=7
y[7]=11
y[8]=0
y[9]=7
y[10]=4
y[11]=3
y[12]=11
y[13]=1
y[14]=8
y[15]=9
y[16]=4
y[17]=3
y[18]=3
y[19]=7
y[20]=3
y[21]=9
y[22]=10
y[23]=1
y[24]=7
y[25]=9
y[26]=11
y[27]=8
y[28]=7
y[29]=8
y[30]=3
y[31]=12
y[32]=5
y[33]=6
y[34]=12
y[35]=11
y[36]=10
y[37]=12
y[38]=5
y[39]=10
y[40]=1
y[41]=2
y[42]=1
y[43]=8
y[44]=10
y[45]=6
y[46]=0
y[47]=4
y[48]=1
y[49]=5
y[50]=2
y[51]=0
y[52]=2
y[53]=9
y[54]=1
y[55]=6
y[56]=12
y[57]=5
y[58]=4
y[59]=11
y[60]=5
y[61]=0
y[62]=5
y[63]=6
y[64]=4
y[65]=2
