data/solutions/recovery/degenerate/intermediate/binding/degenerate_intermediate_instance38/65.log

Log started (V12.6.3.0) Sun Apr 22 12:38:24 2018

New value for default parallel thread count: 1

Problem '/tmp/tmplbLrH2.pyomo.lp' read.
Read time = 0.01 sec. (0.70 ticks)

Problem name         : /tmp/tmplbLrH2.pyomo.lp
Objective sense      : Minimize
Variables            :    1074  [Nneg: 1,  Binary: 1056,  General Integer: 17]
Objective nonzeros   :       1
Linear constraints   :     168  [Less: 82,  Equal: 86]
  Nonzeros           :   49863
  RHS nonzeros       :      67

Variables            : Min LB: 0.000000         Max UB: 1.000000       
Objective nonzeros   : Min   : 1.000000         Max   : 1.000000       
Linear constraints   :
  Nonzeros           : Min   : 1.000000         Max   : 117484.0       
  RHS nonzeros       : Min   : 1.000000         Max   : 1.000000       
Tried aggregator 2 times.
MIP Presolve eliminated 125 rows and 839 columns.
Aggregator did 13 substitutions.
Reduced MIP has 30 rows, 222 columns, and 455 nonzeros.
Reduced MIP has 221 binaries, 1 generals, 0 SOSs, and 0 indicators.
Presolve time = 0.00 sec. (4.12 ticks)
Found incumbent of value 1259594.000000 after 0.00 sec. (5.40 ticks)
Probing time = 0.00 sec. (0.30 ticks)
Cover probing fixed 0 vars, tightened 3 bounds.
Tried aggregator 1 time.
Reduced MIP has 30 rows, 222 columns, and 455 nonzeros.
Reduced MIP has 221 binaries, 1 generals, 0 SOSs, and 0 indicators.
Presolve time = 0.00 sec. (0.39 ticks)
Probing time = 0.00 sec. (0.26 ticks)
Clique table members: 17.
MIP emphasis: balance optimality and feasibility.
MIP search method: dynamic search.
Parallel mode: none, using 1 thread.
Root relaxation solution time = 0.00 sec. (0.40 ticks)

        Nodes                                         Cuts/
   Node  Left     Objective  IInf  Best Integer    Best Bound    ItCnt     Gap

*     0+    0                      1259594.0000   287999.0000            77.14%
      0     0   291109.0769    22  1259594.0000   291109.0769       64   76.89%
*     0+    0                       325252.0000   291109.0769            10.50%
      0     0   299019.6004    18   325252.0000      Cuts: 15      158    8.07%
      0     0   313265.0000    12   325252.0000      Cuts: 17      184    3.69%
      0     0   313265.0000    15   325252.0000      Cuts: 14      210    3.69%
*     0+    0                       313265.0000   313265.0000             0.00%
      0     0        cutoff         313265.0000   313265.0000      210    0.00%
Elapsed time = 0.01 sec. (11.02 ticks, tree = 0.01 MB, solutions = 2)

Clique cuts applied:  2
Cover cuts applied:  1
Implied bound cuts applied:  3
Mixed integer rounding cuts applied:  12
Gomory fractional cuts applied:  7

Root node processing (before b&c):
  Real time             =    0.01 sec. (11.06 ticks)
Sequential b&c:
  Real time             =    0.00 sec. (0.00 ticks)
                          ------------
Total (root+branch&cut) =    0.01 sec. (11.06 ticks)

Solution pool: 2 solutions saved.

MIP - Integer optimal solution:  Objective =  3.1326500000e+05
Solution time =    0.01 sec.  Iterations = 210  Nodes = 0
Deterministic time = 11.06 ticks  (979.92 ticks/sec)


Incumbent solution written to file '/tmp/tmpESmNDB.cplex.sol'.
